2-dimensional/CL_04_25_01.vbp
2
1000 1000 
25
82 62 30
157 178 72
58 160 4
69 94 88
72 112 54
151 98 64
139 134 90
70 55 26
176 194 94
143 183 28
151 157 72
136 149 49
80 91 54
167 118 19
180 112 28
102 158 61
116 87 84
157 85 23
57 83 67
149 66 53
68 66 54
95 167 16
116 53 9
62 56 54
68 110 77
