datasets/2-dimensional/CL_04_25_01.txt
1000 1000 
0 30 82 62 
1 72 157 178 
2 4 58 160 
3 88 69 94 
4 54 72 112 
5 64 151 98 
6 90 139 134 
7 26 70 55 
8 94 176 194 
9 28 143 183 
10 72 151 157 
11 49 136 149 
12 54 80 91 
13 19 167 118 
14 28 180 112 
15 61 102 158 
16 84 116 87 
17 23 157 85 
18 67 57 83 
19 53 149 66 
20 54 68 66 
21 16 95 167 
22 9 116 53 
23 54 62 56 
24 77 68 110 
